NAME : TW_40_seed_None_id_5
TYPE : CVRPTW
DIMENSION : 11
EDGE_WEIGHT_TYPE : EUC_2D
CAPACITY : 25
SERVICE_TIME : 100
LATE_COEFF : 0
NODE_COORD_SECTION
1	545	102
2	808	217
3	521	719
4	750	79
5	662	71
6	455	373
7	650	237
8	47	41
9	355	604
10	857	267
11	63	878
DEMAND_SECTION
1	0
2	1
3	2
4	10
5	6
6	4
7	7
8	7
9	6
10	1
11	5
TIME_WINDOW_SECTION
1	0	10000
2	4015	5994
3	1154	3294
4	1421	3441
5	997	2977
6	678	2748
7	1974	4068
8	793	2718
9	1839	3919
10	4622	6541
11	8074	10000
DEPOT_SECTION
1
-1
EOF
